qbf_easy_train/easy_79_SAT.qdimacs
p cnf 22 52
a 11 3 13 0
e 1 2 4 5 6 7 8 9 10 12 14 15 16 17 18 19 20 21 22 0
-3 1 0
-3 -2 0
-1 2 3 0
5 3 0
5 4 0
-3 -4 -5 0
-7 -1 0
-7 -6 0
1 6 7 0
-7 -8 -9 0
7 8 -9 0
-7 8 9 0
7 -8 9 0
-10 -5 0
-10 -9 0
5 9 10 0
-12 -2 0
-12 11 0
2 -11 12 0
-13 11 -14 0
13 -11 -14 0
-13 -11 14 0
13 11 14 0
15 -2 0
15 -14 0
2 14 -15 0
-11 15 -16 0
11 -15 -16 0
-11 -15 16 0
11 15 16 0
-13 -2 -18 0
13 2 -18 0
-13 2 18 0
13 -2 18 0
-19 17 0
-19 -18 0
-17 18 19 0
20 -16 0
20 19 0
16 -19 -20 0
21 12 0
21 20 0
-12 -20 -21 0
22 10 0
22 21 0
-10 -21 -22 0
4 10 9 -14 19 0
13 -5 20 0
1 16 -14 0
-15 -21 5 -17 7 -4 -18 0
8 -7 -13 20 0
22 0
