sat_easy_train/easy_79_SAT.dimacs
p cnf 81 246
3 1 0
3 -2 0
-1 2 -3 0
-5 3 0
-5 -4 0
-3 4 5 0
7 -6 0
7 -6 0
6 -7 0
-9 2 0
-9 -8 0
-2 8 9 0
-11 -10 0
-11 2 0
10 -2 11 0
-9 -11 -12 0
9 11 -12 0
-9 11 12 0
9 -11 12 0
13 -12 0
13 6 0
12 -6 -13 0
7 -13 -14 0
-7 13 -14 0
7 13 14 0
-7 -13 14 0
-15 8 -16 0
15 -8 -16 0
-15 -8 16 0
15 8 16 0
17 16 0
17 6 0
-16 -6 -17 0
19 -15 0
19 -18 0
15 18 -19 0
-20 17 0
-20 19 0
-17 -19 20 0
20 -21 0
-20 -21 0
-22 -14 0
-22 -21 0
14 21 22 0
-23 7 0
-23 -6 0
-7 6 23 0
-26 -24 0
-26 -25 0
24 25 26 0
29 27 0
29 28 0
-27 -28 -29 0
-30 26 0
-30 29 0
-26 -29 30 0
-31 -23 0
-31 30 0
23 -30 31 0
-15 -31 -32 0
15 31 -32 0
-15 31 32 0
15 -31 32 0
33 -4 0
33 32 0
4 -32 -33 0
-34 -27 0
-34 15 0
27 -15 34 0
-35 33 0
-35 34 0
-33 -34 35 0
-36 20 0
-36 -1 0
-20 1 36 0
37 -35 0
37 -36 0
35 36 -37 0
38 -22 0
38 -37 0
22 37 -38 0
-39 2 -40 0
39 -2 -40 0
-39 -2 40 0
39 2 40 0
-41 27 0
-41 23 0
-27 -23 41 0
24 41 -42 0
-24 -41 -42 0
24 -41 42 0
-24 41 42 0
-43 -40 0
-43 -42 0
40 42 43 0
44 -8 0
44 26 0
8 -26 -44 0
24 28 -45 0
-24 -28 -45 0
24 -28 45 0
-24 28 45 0
-46 44 0
-46 -45 0
-44 45 46 0
39 46 -47 0
-39 -46 -47 0
39 -46 47 0
-39 46 47 0
-48 43 0
-48 47 0
-43 -47 48 0
-4 -39 -49 0
4 39 -49 0
-4 39 49 0
4 -39 49 0
-50 48 0
-50 -49 0
-48 49 50 0
51 1 0
51 12 0
-1 -12 -51 0
53 -52 0
53 -41 0
52 41 -53 0
54 53 0
54 24 0
-53 -24 -54 0
-25 -27 -55 0
25 27 -55 0
-25 27 55 0
25 -27 55 0
-55 53 -56 0
55 -53 -56 0
-55 -53 56 0
55 53 56 0
54 -56 -57 0
-54 56 -57 0
54 56 57 0
-54 -56 57 0
-58 10 0
-58 -53 0
-10 53 58 0
59 15 0
59 39 0
-15 -39 -59 0
-60 58 0
-60 59 0
-58 -59 60 0
-61 -57 0
-61 60 0
57 -60 61 0
-62 1 0
-62 -17 0
-1 17 62 0
8 63 -64 0
-8 -63 -64 0
8 -63 64 0
-8 63 64 0
-65 -24 0
-65 -27 0
24 27 65 0
-66 -64 0
-66 -65 0
64 65 66 0
-62 -66 -67 0
62 66 -67 0
-62 66 67 0
62 -66 67 0
-61 67 -68 0
61 -67 -68 0
-61 -67 68 0
61 67 68 0
69 -51 0
69 -68 0
51 68 -69 0
70 50 0
70 69 0
-50 -69 -70 0
-38 70 -71 0
38 -70 -71 0
-38 -70 71 0
38 70 71 0
72 -25 0
72 -39 0
25 39 -72 0
73 -7 0
73 -72 0
7 72 -73 0
-74 28 0
-74 4 0
-28 -4 74 0
-23 -74 -75 0
23 74 -75 0
-23 74 75 0
23 -74 75 0
76 73 0
76 -75 0
-73 75 -76 0
78 15 0
78 77 0
-15 -77 -78 0
79 -76 0
79 -78 0
76 78 -79 0
71 -79 -80 0
-71 79 -80 0
71 79 80 0
-71 -79 80 0
5 80 -81 0
-5 -80 -81 0
5 -80 81 0
-5 80 81 0
2 66 -18 0
-21 -31 -72 25 19 0
-9 -67 -15 32 0
58 -18 -33 0
-73 -21 0
-34 -56 -75 79 52 -31 0
49 36 70 52 0
-49 -71 0
-70 66 -6 10 -48 0
-9 58 -54 0
-29 -28 0
35 -5 -25 -81 0
2 34 25 0
-71 41 48 0
50 26 31 -77 47 0
-30 32 0
38 36 -71 0
-18 34 -22 44 -40 20 0
-19 -26 0
58 -22 -34 0
50 3 44 -11 -71 0
-71 -67 39 50 -32 0
-67 -77 0
72 -23 45 -14 0
57 75 17 32 -29 63 0
-5 -66 -59 0
-41 -79 -61 22 0
65 -35 30 -10 -44 0
67 28 43 -15 -54 38 0
50 71 0
3 76 36 23 4 0
13 36 -51 -65 0
81 0
